62
125
87	1
86	1
84	1
83	1
82	1
81	1
80	2
77	1
76	2
74	3
73	2
72	2
71	1
70	2
69	1
68	1
66	1
65	1
64	1
61	3
60	1
59	2
58	1
57	2
55	2
54	2
53	1
52	1
51	4
50	2
49	1
47	1
46	1
45	1
44	1
43	3
42	2
41	1
39	3
37	2
36	3
35	1
34	2
31	1
30	1
29	1
28	3
27	3
26	1
25	2
23	2
22	1
21	3
20	2
19	1
18	1
17	1
16	1
15	1
14	1
13	1
12	4
